(set-logic QF_LIA)
(declare-fun x0 () Int)
(declare-fun x1 () Int)
(declare-fun x2 () Int)
(declare-fun x3 () Int)
(declare-fun x4 () Int)
(declare-fun x5 () Int)
(declare-fun x6 () Int)
(declare-fun x7 () Int)
(declare-fun x8 () Int)
(declare-fun x9 () Int)
(declare-fun A0 () Bool)
(declare-fun A1 () Bool)
(declare-fun A2 () Bool)
(declare-fun A3 () Bool)
(declare-fun A4 () Bool)
(declare-fun A5 () Bool)
(declare-fun A6 () Bool)
(declare-fun A7 () Bool)
(declare-fun A8 () Bool)
(declare-fun A9 () Bool)
(assert (let ((.def_0 (* (- 1) x8))) (let ((.def_1 (< .def_0 (- 1)))) (let ((.def_2 (* (- 1) x2))) (let ((.def_3 (< .def_2 1))) (let ((.def_4 (= .def_3 .def_1))) (let ((.def_5 (not A7))) (let ((.def_6 (not A2))) (let ((.def_7 (or .def_6 .def_5))) (let ((.def_8 (not .def_7))) (let ((.def_9 (and .def_8 .def_4))) (let ((.def_10 (not A5))) (let ((.def_11 (* 1 x6))) (let ((.def_12 (< .def_11 1))) (let ((.def_13 (not .def_12))) (let ((.def_14 (and .def_13 .def_10))) (let ((.def_15 (* (- 1) x9))) (let ((.def_16 (+ .def_15 .def_2))) (let ((.def_17 (< .def_16 (- 1)))) (let ((.def_18 (and A6 .def_17))) (let ((.def_19 (or .def_18 .def_14))) (let ((.def_20 (and .def_19 .def_9))) (let ((.def_21 (not .def_20))) (let ((.def_22 (or A6 .def_6))) (let ((.def_23 (< .def_0 1))) (let ((.def_24 (or A6 .def_23))) (let ((.def_25 (not .def_24))) (let ((.def_26 (= .def_25 .def_22))) (let ((.def_27 (not .def_26))) (let ((.def_28 (not A9))) (let ((.def_29 (or .def_28 A0))) (let ((.def_30 (* 1 x0))) (let ((.def_31 (< .def_30 (- 1)))) (let ((.def_32 (or .def_31 A4))) (let ((.def_33 (and .def_32 .def_29))) (let ((.def_34 (not .def_33))) (let ((.def_35 (and .def_34 .def_27))) (let ((.def_36 (or .def_35 .def_21))) (let ((.def_37 (not .def_36))) (let ((.def_38 (* 1 x8))) (let ((.def_39 (* (- 1) x3))) (let ((.def_40 (+ .def_39 .def_38))) (let ((.def_41 (< .def_40 1))) (let ((.def_42 (* (- 1) x1))) (let ((.def_43 (+ .def_42 .def_15))) (let ((.def_44 (< .def_43 1))) (let ((.def_45 (or .def_44 .def_41))) (let ((.def_46 (not .def_45))) (let ((.def_47 (* 1 x7))) (let ((.def_48 (< .def_47 1))) (let ((.def_49 (not .def_48))) (let ((.def_50 (and A8 .def_49))) (let ((.def_51 (and .def_50 .def_46))) (let ((.def_52 (* (- 1) x6))) (let ((.def_53 (+ .def_38 .def_52))) (let ((.def_54 (< .def_53 (- 1)))) (let ((.def_55 (* (- 1) x5))) (let ((.def_56 (+ .def_38 .def_55))) (let ((.def_57 (< .def_56 (- 1)))) (let ((.def_58 (and .def_57 .def_54))) (let ((.def_59 (+ .def_2 .def_38))) (let ((.def_60 (< .def_59 (- 1)))) (let ((.def_61 (or A7 .def_60))) (let ((.def_62 (not .def_61))) (let ((.def_63 (and .def_62 .def_58))) (let ((.def_64 (and .def_63 .def_51))) (let ((.def_65 (not .def_64))) (let ((.def_66 (+ .def_11 .def_47))) (let ((.def_67 (< .def_66 1))) (let ((.def_68 (not .def_67))) (let ((.def_69 (or .def_48 .def_68))) (let ((.def_70 (not .def_69))) (let ((.def_71 (< .def_47 (- 1)))) (let ((.def_72 (* (- 1) x7))) (let ((.def_73 (+ .def_72 .def_39))) (let ((.def_74 (< .def_73 1))) (let ((.def_75 (not .def_74))) (let ((.def_76 (and .def_75 .def_71))) (let ((.def_77 (not .def_76))) (let ((.def_78 (and .def_77 .def_70))) (let ((.def_79 (not .def_78))) (let ((.def_80 (not A0))) (let ((.def_81 (not A3))) (let ((.def_82 (and .def_81 .def_80))) (let ((.def_83 (not .def_82))) (let ((.def_84 (+ .def_42 .def_47))) (let ((.def_85 (< .def_84 (- 1)))) (let ((.def_86 (not .def_85))) (let ((.def_87 (or .def_86 .def_5))) (let ((.def_88 (and .def_87 .def_83))) (let ((.def_89 (not .def_88))) (let ((.def_90 (and .def_89 .def_79))) (let ((.def_91 (not .def_90))) (let ((.def_92 (and .def_91 .def_65))) (let ((.def_93 (and .def_92 .def_37))) (let ((.def_94 (not .def_93))) (let ((.def_95 (* 1 x5))) (let ((.def_96 (* (- 1) x4))) (let ((.def_97 (+ .def_96 .def_95))) (let ((.def_98 (< .def_97 1))) (let ((.def_99 (and .def_98 A7))) (let ((.def_100 (not .def_99))) (let ((.def_101 (< .def_2 (- 1)))) (let ((.def_102 (not .def_101))) (let ((.def_103 (* (- 1) x0))) (let ((.def_104 (< .def_103 1))) (let ((.def_105 (not .def_104))) (let ((.def_106 (or .def_105 .def_102))) (let ((.def_107 (or .def_106 .def_100))) (let ((.def_108 (* 1 x3))) (let ((.def_109 (+ .def_108 .def_11))) (let ((.def_110 (< .def_109 (- 1)))) (let ((.def_111 (not A8))) (let ((.def_112 (and .def_111 .def_110))) (let ((.def_113 (not .def_112))) (let ((.def_114 (* 1 x4))) (let ((.def_115 (< .def_114 (- 1)))) (let ((.def_116 (not .def_115))) (let ((.def_117 (and .def_116 .def_28))) (let ((.def_118 (or .def_117 .def_113))) (let ((.def_119 (or .def_118 .def_107))) (let ((.def_120 (< .def_84 1))) (let ((.def_121 (or .def_120 .def_10))) (let ((.def_122 (or A8 .def_102))) (let ((.def_123 (or .def_122 .def_121))) (let ((.def_124 (* 1 x1))) (let ((.def_125 (+ .def_124 .def_55))) (let ((.def_126 (< .def_125 1))) (let ((.def_127 (or .def_126 A8))) (let ((.def_128 (< .def_42 (- 1)))) (let ((.def_129 (and A4 .def_128))) (let ((.def_130 (or .def_129 .def_127))) (let ((.def_131 (or .def_130 .def_123))) (let ((.def_132 (not .def_131))) (let ((.def_133 (or .def_132 .def_119))) (let ((.def_134 (not .def_133))) (let ((.def_135 (not A1))) (let ((.def_136 (or A6 .def_135))) (let ((.def_137 (not .def_136))) (let ((.def_138 (< .def_124 1))) (let ((.def_139 (not .def_138))) (let ((.def_140 (and .def_139 .def_5))) (let ((.def_141 (and .def_140 .def_137))) (let ((.def_142 (not .def_141))) (let ((.def_143 (< .def_55 1))) (let ((.def_144 (not .def_143))) (let ((.def_145 (or A3 .def_144))) (let ((.def_146 (not .def_145))) (let ((.def_147 (+ .def_47 .def_114))) (let ((.def_148 (< .def_147 (- 1)))) (let ((.def_149 (* 1 x2))) (let ((.def_150 (< .def_149 (- 1)))) (let ((.def_151 (not .def_150))) (let ((.def_152 (and .def_151 .def_148))) (let ((.def_153 (or .def_152 .def_146))) (let ((.def_154 (or .def_153 .def_142))) (let ((.def_155 (+ .def_114 .def_2))) (let ((.def_156 (< .def_155 (- 1)))) (let ((.def_157 (not .def_156))) (let ((.def_158 (or .def_157 .def_128))) (let ((.def_159 (not .def_158))) (let ((.def_160 (or A9 .def_5))) (let ((.def_161 (or .def_160 .def_159))) (let ((.def_162 (+ .def_11 .def_95))) (let ((.def_163 (< .def_162 (- 1)))) (let ((.def_164 (or .def_6 .def_163))) (let ((.def_165 (* 1 x9))) (let ((.def_166 (< .def_165 1))) (let ((.def_167 (or A9 .def_166))) (let ((.def_168 (not .def_167))) (let ((.def_169 (and .def_168 .def_164))) (let ((.def_170 (or .def_169 .def_161))) (let ((.def_171 (not .def_170))) (let ((.def_172 (or .def_171 .def_154))) (let ((.def_173 (= .def_172 .def_134))) (let ((.def_174 (and .def_173 .def_94))) (let ((.def_175 (<= x9 1))) (let ((.def_176 (<= 0 x9))) (let ((.def_177 (<= x8 1))) (let ((.def_178 (<= 0 x8))) (let ((.def_179 (<= x7 1))) (let ((.def_180 (<= 0 x7))) (let ((.def_181 (<= x6 1))) (let ((.def_182 (<= 0 x6))) (let ((.def_183 (<= x5 1))) (let ((.def_184 (<= 0 x5))) (let ((.def_185 (<= x4 1))) (let ((.def_186 (<= 0 x4))) (let ((.def_187 (<= x3 1))) (let ((.def_188 (<= 0 x3))) (let ((.def_189 (<= x2 1))) (let ((.def_190 (<= 0 x2))) (let ((.def_191 (<= x1 1))) (let ((.def_192 (<= 0 x1))) (let ((.def_193 (<= x0 1))) (let ((.def_194 (<= 0 x0))) (let ((.def_195 (and .def_194 .def_193 .def_192 .def_191 .def_190 .def_189 .def_188 .def_187 .def_186 .def_185 .def_184 .def_183 .def_182 .def_181 .def_180 .def_179 .def_178 .def_177 .def_176 .def_175 .def_174))) .def_195)))))))))))))))))))))))))))))))))))))))))))))))))))))))))))))))))))))))))))))))))))))))))))))))))))))))))))))))))))))))))))))))))))))))))))))))))))))))))))))))))))))))))))))))))))))))))))))))))))))
(check-sat)
